experiment/data/hgs-res/Vrp-Set-B-n45/Vrp-Set-B-n45-hgs/1.hgs1.vrp
NAME : 1
COMMENT : CVRP Instance
TYPE : CVRP
DIMENSION : 45
EDGE_WEIGHT_TYPE : EUC_2D
CAPACITY : 100
NODE_COORD_SECTION
1	49.0	64.0
2	60.0	38.0
3	38.0	21.0
4	98.0	27.0
5	69.0	60.0
6	59.0	40.0
7	82.0	28.0
8	86.0	36.0
9	76.0	65.0
10	102.0	29.0
11	43.0	26.0
12	45.0	28.0
13	76.0	68.0
14	64.0	45.0
15	0.0	44.0
16	89.0	31.0
17	60.0	44.0
18	0.0	44.0
19	84.0	29.0
20	83.0	66.0
21	86.0	36.0
22	103.0	32.0
23	76.0	65.0
24	86.0	74.0
25	0.0	48.0
26	66.0	41.0
27	67.0	40.0
28	77.0	61.0
29	78.0	66.0
30	66.0	46.0
31	61.0	41.0
32	105.0	31.0
33	78.0	68.0
34	91.0	37.0
35	83.0	29.0
36	91.0	45.0
37	42.0	25.0
38	83.0	69.0
39	101.0	36.0
40	74.0	65.0
41	93.0	37.0
42	107.0	34.0
43	63.0	40.0
44	61.0	47.0
45	90.0	43.0
DEMAND_SECTION
1	0
2	21
3	13
4	24
5	10
6	22
7	16
8	9
9	9
10	18
11	15
12	3
13	7
14	14
15	22
16	10
17	13
18	3
19	4
20	14
21	2
22	16
23	10
24	5
25	11
26	19
27	14
28	18
29	12
30	21
31	21
32	24
33	6
34	7
35	13
36	15
37	5
38	10
39	19
40	6
41	21
42	19
43	17
44	26
45	8
DEPOT_SECTION
1
-1
EOF
