experiment/data/hgs-res/Vrp-Set-B-n45/Vrp-Set-B-n45-hgs/1.hgs1.tour
Route #1: 24 14 17 2 36 10 11 1
Route #2: 43 13 42 30 5
Route #3: 16 25 26 6 34 18 29
Route #4: 44 33 40 9 3 15 7 20
Route #5: 21 31 41 38 35 12
Route #6: 4 27 19 37 23 32 28 22 8 39
Cost 680.438
